NAME: instance_2475
TYPE: TSP
DIMENSION: 20
EDGE_WEIGHT_TYPE: EUC_2D
NODE_COORD_SECTION
0 25.34 14.08
1 69.39 16.73
2 1.88 50.61
3 23.38 50.77
4 36.19 83.16
5 91.82 16.88
6 36.73 45.05
7 96.34 80.15
8 5.82 85.39
9 33.18 12.72
10 78.00 19.60
11 30.43 92.92
12 60.29 97.13
13 68.65 86.66
14 56.66 10.30
15 12.71 24.81
16 54.71 64.92
17 64.06 78.89
18 44.45 32.40
19 1.55 49.33
EOF
